groups = 7;
numShifts = 3;
demand = [| 2, 2, 2, 2, 2, 2, 0,
          | 2, 2, 2, 2, 2, 2, 0,
          | 2, 2, 2, 2, 2, 0, 2 |];
minShift = [2, 2, 2];
maxShift = [6, 6, 6];
minOff = 1;
maxOff = 4;
minOn = 4;
maxOn = 7;
forbidden = [{}, {1}, {1,2}];
forbidden3 = [| 3, 0, 3,
              | 2, 0, 1,
              | 3, 0, 2,
              | 3, 0, 1 |];
